50
17776

889 492
364 780
516 228
585 257
24 687
37 312
710 826
505 98
185 378
65 324
576 209
570 696
97 54
525 850
86 560
614 6
760 761
487 549
275 959
794 510
533 17
309 498
534 125
740 886
592 622
578 42
471 561
884 733
708 293
672 802
6 175
629 142
262 894
855 936
972 812
446 493
474 459
375 985
564 136
214 322
375 558
415 758
988 943
132 515
226 254
186 631
823 550
417 544
850 960
549 574
